************************************************************************
file with basedata            : md340_.bas
initial value random generator: 432183909
************************************************************************
projects                      :  1
jobs (incl. supersource/sink ):  22
horizon                       :  143
RESOURCES
  - renewable                 :  2   R
  - nonrenewable              :  2   N
  - doubly constrained        :  0   D
************************************************************************
PROJECT INFORMATION:
pronr.  #jobs rel.date duedate tardcost  MPM-Time
    1     20      0       21       16       21
************************************************************************
PRECEDENCE RELATIONS:
jobnr.    #modes  #successors   successors
   1        1          3           2   3   4
   2        3          3           5   7   9
   3        3          3           5   8  10
   4        3          3           6   8  11
   5        3          2          13  20
   6        3          2          12  18
   7        3          3          10  15  18
   8        3          3          12  15  18
   9        3          3          11  14  17
  10        3          1          19
  11        3          1          20
  12        3          2          13  16
  13        3          1          21
  14        3          1          19
  15        3          3          16  17  19
  16        3          1          21
  17        3          1          21
  18        3          1          20
  19        3          1          22
  20        3          1          22
  21        3          1          22
  22        1          0        
************************************************************************
REQUESTS/DURATIONS:
jobnr. mode duration  R 1  R 2  N 1  N 2
------------------------------------------------------------------------
  1      1     0       0    0    0    0
  2      1     1       8    0    0    4
         2     1       9    0    0    3
         3     5       6    0    4    0
  3      1     1       0   10    4    0
         2     6       0   10    3    0
         3     9       4    0    0    9
  4      1     2       7    0    0    5
         2     3       0    7    0    3
         3     4       0    1    0    2
  5      1     4       0    9    0    8
         2     5       0    6    0    4
         3     5       5    0    0    4
  6      1     4       5    0    0    6
         2     5       4    0    8    0
         3     9       0    7    0    5
  7      1     1       4    0    7    0
         2     2       0    9    3    0
         3     3       1    0    0    3
  8      1     1       0    3    3    0
         2     3       0    1    2    0
         3     8       9    0    2    0
  9      1     3       0    6    0    1
         2     7       7    0    8    0
         3    10       0    2    7    0
 10      1     3       7    0    0    3
         2     5       7    0    2    0
         3     9       0    4    0    3
 11      1     1       2    0    0    5
         2     5       0    6    0    3
         3     7       2    0    0    3
 12      1     2       8    0    0    9
         2     3       0    6    0    8
         3     5       7    0    9    0
 13      1     3       6    0    0   10
         2     7       0    8    0    6
         3     9       0    3    0    6
 14      1     4       0    8    9    0
         2     8       0    8    0    3
         3     9       0    7    5    0
 15      1     8       9    0    0    6
         2     9       8    0    0    6
         3     9       0    4    0    5
 16      1     7       5    0    4    0
         2     7       3    0    0    3
         3     8       1    0    0    2
 17      1     2       0    7    5    0
         2     4       5    0    0    4
         3     7       0    7    0    3
 18      1     2       0    7    0    5
         2     2       1    0    0    6
         3     6       0    7    7    0
 19      1     2       0   10    9    0
         2     8       0    9    7    0
         3     9       3    0    5    0
 20      1     1       9    0    0    6
         2     8       0    3    0    5
         3     8       0    7    0    4
 21      1     3       3    0    0    5
         2     3       3    0    3    0
         3     4       2    0    3    0
 22      1     0       0    0    0    0
************************************************************************
RESOURCEAVAILABILITIES:
  R 1  R 2  N 1  N 2
   24   38   63   78
************************************************************************
MAXIMAL LAGS:
from  to  type  delay
    1   22   ES      0
    1    2   ES      0
    2   22   ES      0
    1    3   ES      0
    3   22   ES      0
    1    4   ES      0
    4   22   ES      0
    1    5   ES      0
    5   22   ES      0
    1    6   ES      0
    6   22   ES      0
    1    7   ES      0
    7   22   ES      0
    1    8   ES      0
    8   22   ES      0
    1    9   ES      0
    9   22   ES      0
    1   10   ES      0
   10   22   ES      0
    1   11   ES      0
   11   22   ES      0
    1   12   ES      0
   12   22   ES      0
    1   13   ES      0
   13   22   ES      0
    1   14   ES      0
   14   22   ES      0
    1   15   ES      0
   15   22   ES      0
    1   16   ES      0
   16   22   ES      0
    1   17   ES      0
   17   22   ES      0
    1   18   ES      0
   18   22   ES      0
    1   19   ES      0
   19   22   ES      0
    1   20   ES      0
   20   22   ES      0
    1   21   ES      0
   21   22   ES      0
    1   22   ES      0
    2    5   SS     -9
    2    5   SE     11
    2    5   ES     11
    2    5   EE     10
    2    7   SS      0
    2    7   SE      8
    2    7   ES     -4
    2    7   EE      8
    2    9   SS      8
    2    9   SE      7
    2    9   ES      5
    2    9   EE     -6
    3    5   SS      2
    3    5   SE     -5
    3    5   ES     -2
    3    5   EE     -4
    3    8   SS     -6
    3    8   SE      6
    3    8   ES      8
    3    8   EE     12
    3   10   SS      0
    3   10   SE     -8
    3   10   ES      2
    3   10   EE     -5
    4    6   SS     11
    4    6   SE     11
    4    6   ES      1
    4    6   EE     -1
    4    8   SS     -8
    4    8   SE      3
    4    8   ES    -10
    4    8   EE      3
    4   11   SS     -7
    4   11   SE      2
    4   11   ES     -7
    4   11   EE     -7
    5   13   SS     -6
    5   13   SE      6
    5   13   ES      3
    5   13   EE     11
    5   20   SS     -7
    5   20   SE      8
    5   20   ES     -3
    5   20   EE    -12
    6   12   SS     -3
    6   12   SE     -7
    6   12   ES     -7
    6   12   EE      0
    6   18   SS      9
    6   18   SE      7
    6   18   ES     -6
    6   18   EE    -10
    7   10   SS     -8
    7   10   SE    -10
    7   10   ES      1
    7   10   EE     -5
    7   15   SS      2
    7   15   SE      8
   15    7   SE      0
    7   15   ES      0
    7   15   EE     -9
    7   18   SS     11
    7   18   SE      4
    7   18   ES     -8
    7   18   EE     11
    8   12   SS     12
    8   12   SE    -12
    8   12   ES      7
    8   12   EE     -9
    8   15   SS      0
    8   15   SE      0
    8   15   ES    -12
    8   15   EE     -9
    8   18   SS    -12
    8   18   SE     12
    8   18   ES      8
    8   18   EE    -11
    9   11   SS     -8
    9   11   SE     -5
    9   11   ES     12
    9   11   EE    -10
    9   14   SS     -4
    9   14   SE     -8
    9   14   ES      8
    9   14   EE      7
    9   17   SS    -12
    9   17   SE    -12
    9   17   ES     -9
    9   17   EE      5
   10   19   SS     11
   10   19   SE     -2
   10   19   ES     10
   10   19   EE    -10
   11   20   SS     -6
   11   20   SE     -8
   11   20   ES      3
   11   20   EE     12
   12   13   SS      6
   12   13   SE      2
   12   13   ES     -7
   12   13   EE     -3
   12   16   SS     -2
   12   16   SE      3
   12   16   ES     -8
   12   16   EE     -5
   13   21   SS    -11
   13   21   SE      5
   13   21   ES     10
   13   21   EE     -4
   14   19   SS      8
   14   19   SE      5
   14   19   ES     -9
   14   19   EE    -12
   15   16   SS    -11
   15   16   SE     -9
   15   16   ES      5
   15   16   EE     -3
   15   17   SS     -9
   15   17   SE      4
   15   17   ES      1
   15   17   EE     -8
   15   19   SS    -12
   15   19   SE     -5
   15   19   ES    -12
   15   19   EE     -5
   16   21   SS      1
   16   21   SE      0
   16   21   ES     -8
   16   21   EE     -1
   17   21   SS      8
   17   21   SE     -3
   17   21   ES     -5
   17   21   EE      9
   18   20   SS      0
   18   20   SE      9
   18   20   ES     10
   18   20   EE     -9
************************************************************************
